cases/matpower/case30.m
ipopt
SOCW
[info | PowerModels]: removing 3 cost terms from generator 4: Float64[]
[info | PowerModels]: removing 1 cost terms from generator 1: [52.1378, 0.0]
[info | PowerModels]: removing 3 cost terms from generator 5: Float64[]
[info | PowerModels]: removing 1 cost terms from generator 2: [113.51659999999998, 0.0]
[info | PowerModels]: removing 3 cost terms from generator 6: Float64[]
[info | PowerModels]: removing 3 cost terms from generator 3: Float64[]

******************************************************************************
This program contains Ipopt, a library for large-scale nonlinear optimization.
 Ipopt is released as open source code under the Eclipse Public License (EPL).
         For more information visit http://projects.coin-or.org/Ipopt
******************************************************************************

This is Ipopt version 3.13.2, running with linear solver mumps.
NOTE: Other linear solvers might be more efficient (see Ipopt documentation).

Number of nonzeros in equality constraint Jacobian...:      788
Number of nonzeros in inequality constraint Jacobian.:      738
Number of nonzeros in Lagrangian Hessian.............:      287

Total number of variables............................:      284
                     variables with only lower bounds:        0
                variables with lower and upper bounds:      284
                     variables with only upper bounds:        0
Total number of equality constraints.................:      224
Total number of inequality constraints...............:      287
        inequality constraints with only lower bounds:      123
   inequality constraints with lower and upper bounds:        0
        inequality constraints with only upper bounds:      164

iter    objective    inf_pr   inf_du lg(mu)  ||d||  lg(rg) alpha_du alpha_pr  ls
   0  1.6565423e+00 9.42e-01 3.65e+01  -1.0 0.00e+00    -  0.00e+00 0.00e+00   0
   1  4.7632493e-01 9.26e-01 3.13e+01  -1.0 1.44e+00    -  8.30e-02 1.69e-02f  1
   2  3.6628687e-01 8.28e-01 1.44e+01  -1.0 1.17e+00    -  4.58e-01 1.06e-01h  1
   3  4.0569174e-01 7.59e-01 2.40e+01  -1.0 1.53e+00    -  1.79e-01 8.28e-02h  1
   4  5.0856727e-01 7.23e-01 9.00e+01  -1.0 2.34e+00    -  1.41e-01 4.75e-02h  1
   5  8.8013905e+00 6.71e-01 5.11e+01  -1.0 2.21e+00    -  4.85e-03 7.20e-02h  1
   6  3.8449368e+01 5.23e-01 1.87e+02  -1.0 2.57e+00    -  3.93e-01 2.21e-01h  1
   7  9.6149400e+01 2.67e-01 1.84e+01  -1.0 2.23e+00    -  2.83e-01 4.89e-01H  1
   8  1.2114077e+02 1.63e-01 8.72e+01  -1.0 1.52e+00    -  5.99e-01 3.90e-01h  1
   9  1.4303039e+02 7.55e-02 1.98e+02  -1.0 1.72e+00    -  1.00e+00 5.36e-01h  1
iter    objective    inf_pr   inf_du lg(mu)  ||d||  lg(rg) alpha_du alpha_pr  ls
  10  1.4698157e+02 6.03e-02 4.98e+02  -1.0 1.15e+00    -  1.00e+00 2.02e-01h  1
  11  1.4868214e+02 5.20e-02 1.88e+02  -1.0 4.29e-01    -  7.01e-02 1.39e-01h  1
  12  1.7139243e+02 2.59e-02 2.48e+01  -1.0 2.38e-01    -  1.00e+00 8.38e-01h  1
  13  1.7647056e+02 5.11e-15 1.59e+02  -1.0 5.47e-02    -  2.61e-01 1.00e+00h  1
  14  1.7636559e+02 7.33e-15 2.30e-01  -1.0 1.79e-02    -  1.00e+00 1.00e+00f  1
  15  1.7440802e+02 3.55e-15 6.66e+01  -1.7 2.90e-02    -  9.06e-01 7.16e-01f  1
  16  1.7329418e+02 4.79e-15 5.99e-01  -1.7 1.90e-02    -  1.00e+00 1.00e+00f  1
  17  1.7332548e+02 4.70e-15 2.48e-03  -1.7 3.79e-03    -  1.00e+00 1.00e+00f  1
  18  1.7260002e+02 5.38e-15 1.50e+01  -3.8 1.50e-02    -  6.38e-01 8.66e-01f  1
  19  1.7242569e+02 4.45e-05 2.55e+00  -3.8 5.18e-02    -  9.11e-01 1.00e+00f  1
iter    objective    inf_pr   inf_du lg(mu)  ||d||  lg(rg) alpha_du alpha_pr  ls
  20  1.7242541e+02 3.62e-05 5.05e+00  -3.8 1.39e-02    -  2.98e-01 3.59e-01h  1
  21  1.7242286e+02 1.03e-05 3.39e+00  -3.8 1.37e-02    -  6.84e-01 1.00e+00f  1
  22  1.7242189e+02 5.66e-15 1.02e-02  -3.8 5.21e-03    -  1.00e+00 1.00e+00h  1
  23  1.7242160e+02 6.38e-15 5.19e-04  -3.8 2.79e-03    -  1.00e+00 1.00e+00h  1
  24  1.7241420e+02 6.77e-07 1.91e-01  -5.7 3.35e-03    -  8.77e-01 9.69e-01f  1
  25  1.7241391e+02 1.21e-14 2.00e-05  -5.7 8.87e-04    -  1.00e+00 1.00e+00f  1
  26  1.7241391e+02 6.77e-15 4.12e-07  -5.7 1.28e-04    -  1.00e+00 1.00e+00h  1
  27  1.7241381e+02 1.46e-09 6.49e-05  -8.6 8.19e-05    -  9.97e-01 1.00e+00h  1
  28  1.7241381e+02 1.19e-14 1.25e-10  -8.6 2.12e-06    -  1.00e+00 1.00e+00h  1

Number of Iterations....: 28

                                   (scaled)                 (unscaled)
Objective...............:   1.5188423064921321e+02    1.7241381456914473e+02
Dual infeasibility......:   1.2491021875379645e-10    1.4179383338187208e-10
Constraint violation....:   1.1936632238196410e-14    1.1936632238196410e-14
Complementarity.........:   2.6363351911073193e-09    2.9926780735485307e-09
Overall NLP error.......:   2.6363351911073193e-09    2.9926780735485307e-09


Number of objective function evaluations             = 30
Number of objective gradient evaluations             = 29
Number of equality constraint evaluations            = 30
Number of inequality constraint evaluations          = 30
Number of equality constraint Jacobian evaluations   = 29
Number of inequality constraint Jacobian evaluations = 29
Number of Lagrangian Hessian evaluations             = 28
Total CPU secs in IPOPT (w/o function evaluations)   =      0.402
Total CPU secs in NLP function evaluations           =      0.213

EXIT: Optimal Solution Found.
Time to Solution........:1.3786351680755615
cases/matpower/case30.m
ipopt
QCRM
[info | PowerModels]: removing 3 cost terms from generator 4: Float64[]
[info | PowerModels]: removing 1 cost terms from generator 1: [52.1378, 0.0]
[info | PowerModels]: removing 3 cost terms from generator 5: Float64[]
[info | PowerModels]: removing 1 cost terms from generator 2: [113.51659999999998, 0.0]
[info | PowerModels]: removing 3 cost terms from generator 6: Float64[]
[info | PowerModels]: removing 3 cost terms from generator 3: Float64[]

******************************************************************************
This program contains Ipopt, a library for large-scale nonlinear optimization.
 Ipopt is released as open source code under the Eclipse Public License (EPL).
         For more information visit http://projects.coin-or.org/Ipopt
******************************************************************************

This is Ipopt version 3.13.2, running with linear solver mumps.
NOTE: Other linear solvers might be more efficient (see Ipopt documentation).

Number of nonzeros in equality constraint Jacobian...:     1088
Number of nonzeros in inequality constraint Jacobian.:     2621
Number of nonzeros in Lagrangian Hessian.............:      358

Total number of variables............................:      549
                     variables with only lower bounds:        0
                variables with lower and upper bounds:      519
                     variables with only upper bounds:        0
Total number of equality constraints.................:      307
Total number of inequality constraints...............:     1003
        inequality constraints with only lower bounds:      481
   inequality constraints with lower and upper bounds:        0
        inequality constraints with only upper bounds:      522

iter    objective    inf_pr   inf_du lg(mu)  ||d||  lg(rg) alpha_du alpha_pr  ls
   0  1.6565423e+00 2.89e+00 1.87e+01  -1.0 0.00e+00    -  0.00e+00 0.00e+00   0
   1  2.7113330e+01 2.58e+00 2.90e+01  -1.0 1.73e+00    -  6.03e-03 1.08e-01h  1
   2  2.4139407e+01 2.46e+00 2.77e+01  -1.0 5.87e+00    -  4.06e-02 4.47e-02f  1
   3  4.5873846e+01 2.07e+00 2.33e+01  -1.0 2.43e+00    -  1.54e-01 1.59e-01h  1
   4  6.9171585e+01 1.62e+00 1.82e+01  -1.0 2.21e+00    -  1.41e-01 2.17e-01h  1
   5  1.1374624e+02 8.18e-01 9.17e+00  -1.0 1.78e+00    -  4.62e-01 4.96e-01h  1
   6  1.2827501e+02 5.68e-01 6.07e+01  -1.0 1.37e+00    -  8.87e-01 3.05e-01h  1
   7  1.4009196e+02 3.72e-01 6.20e+01  -1.0 1.58e+00    -  5.46e-01 3.46e-01h  1
   8  1.4921848e+02 2.26e-01 2.10e+01  -1.0 1.19e+00    -  2.36e-01 3.92e-01h  1
   9  1.6455421e+02 9.47e-02 1.21e+02  -1.0 2.37e-01    -  5.81e-02 5.81e-01h  1
iter    objective    inf_pr   inf_du lg(mu)  ||d||  lg(rg) alpha_du alpha_pr  ls
  10  1.7252169e+02 4.27e-02 1.26e+02  -1.0 1.40e-01    -  4.49e-01 5.49e-01h  1
  11  1.7771048e+02 1.28e-02 3.39e+01  -1.0 7.67e-02    -  7.36e-01 7.00e-01h  1
  12  1.8026733e+02 4.55e-13 6.84e-01  -1.0 3.46e-02    -  1.00e+00 1.00e+00h  1
  13  1.7686473e+02 8.48e-04 1.38e+02  -1.7 2.13e-01    -  8.87e-01 5.65e-01f  1
  14  1.7469602e+02 2.93e-04 8.80e+00  -1.7 1.15e-01    -  9.20e-01 9.56e-01f  1
  15  1.7452704e+02 4.55e-13 4.57e-02  -1.7 2.48e-02    -  1.00e+00 1.00e+00f  1
  16  1.7356335e+02 1.17e-04 1.37e+01  -2.5 5.78e-02    -  7.16e-01 7.83e-01f  1
  17  1.7324325e+02 2.53e-13 1.09e+01  -2.5 6.84e-02    -  8.72e-01 1.00e+00f  1
  18  1.7320869e+02 1.59e-13 8.31e-03  -2.5 1.10e-01    -  1.00e+00 1.00e+00h  1
  19  1.7299355e+02 1.83e-04 6.88e+00  -3.8 2.39e-01    -  5.99e-01 8.15e-01f  1
iter    objective    inf_pr   inf_du lg(mu)  ||d||  lg(rg) alpha_du alpha_pr  ls
  20  1.7293855e+02 6.35e-05 4.56e+00  -3.8 2.73e-01    -  5.89e-01 7.14e-01h  1
  21  1.7292069e+02 4.55e-13 4.68e-03  -3.8 8.02e-02    -  1.00e+00 1.00e+00f  1
  22  1.7292257e+02 2.35e-13 1.96e-04  -3.8 1.32e-02    -  1.00e+00 1.00e+00h  1
  23  1.7290972e+02 4.71e-07 1.27e-01  -5.7 2.92e-02    -  9.46e-01 8.75e-01f  1
  24  1.7290828e+02 2.97e-09 7.89e-04  -5.7 2.57e-03    -  1.00e+00 1.00e+00h  1
  25  1.7290830e+02 4.55e-13 6.85e-06  -5.7 1.11e-04    -  1.00e+00 1.00e+00h  1
  26  1.7290813e+02 4.55e-13 8.84e-03  -8.6 3.08e-04    -  1.00e+00 9.62e-01h  1
  27  1.7290813e+02 4.55e-13 5.00e+00  -8.6 9.38e-06    -  9.10e-01 4.66e-01f  1
  28  1.7290813e+02 7.88e-10 2.38e+00  -8.6 3.69e-06    -  9.03e-01 5.50e-01f  1
  29  1.7290813e+02 2.10e-10 1.72e+00  -8.6 5.29e-07    -  1.00e+00 5.83e-01f  1
iter    objective    inf_pr   inf_du lg(mu)  ||d||  lg(rg) alpha_du alpha_pr  ls
  30  1.7290813e+02 2.11e-13 1.07e-08  -8.6 1.79e-07    -  1.00e+00 1.00e+00f  1
  31  1.7290813e+02 2.23e-13 7.17e-10  -9.0 5.39e-08    -  1.00e+00 1.00e+00h  1

Number of Iterations....: 31

                                   (scaled)                 (unscaled)
Objective...............:   1.5231968655038989e+02    1.7290812930265986e+02
Dual infeasibility......:   7.1743753516400162e-10    8.1441069704197897e-10
Constraint violation....:   2.2146347256057908e-14    2.2306820019607487e-13
Complementarity.........:   1.0252366803150666e-09    1.1638138214465329e-09
Overall NLP error.......:   1.0252366803150666e-09    1.1638138214465329e-09


Number of objective function evaluations             = 32
Number of objective gradient evaluations             = 32
Number of equality constraint evaluations            = 32
Number of inequality constraint evaluations          = 32
Number of equality constraint Jacobian evaluations   = 32
Number of inequality constraint Jacobian evaluations = 32
Number of Lagrangian Hessian evaluations             = 31
Total CPU secs in IPOPT (w/o function evaluations)   =      0.550
Total CPU secs in NLP function evaluations           =      0.210

EXIT: Optimal Solution Found.
Time to Solution........:1.526550054550171
